Traveling Salesman Problem/TSP_generados/Aleatorio1620390905_8.tsp
NAME: Aleatorio1620390905_8.tsp
COMMENT: Randomly generated scenario
TYPE: TSP
DIMENSION: 8
EDGE_WEIGHT_TYPE: ATT
NODE_COORD_SECTION
1 40.36 9.9
2 20.51 43.67
3 49.87 14.44
4 20.92 37.29
5 47.49 47.79
6 39.37 35.55
7 47.04 46.14
8 36.63 47.84
