Traveling Salesman Problem/TSP_generados/Aleatorio1620390905_8.opt.tour
NAME: Aleatorio1620390905_8.opt.tour
COMMENT: Optimal solution for Aleatorio1620390905_8 (116.3928222763227)
TYPE: TOUR
DIMENSION: 8
TOUR_SECTION
1 4 2 8 5 7 6 3
-1
EOF
